sat
(:max-memory              28.64
 :memory                  18.56
 :num-allocs              2497811
 :rlimit-count            25879
 :sat-backjumps           67
 :sat-conflicts           67
 :sat-decisions           310
 :sat-minimized-lits      23
 :sat-mk-clause-2ary      3165
 :sat-mk-clause-nary      12482
 :sat-mk-var              3564
 :sat-propagations-2ary   3798
 :sat-propagations-nary   5322
 :sat-subs-resolution-dyn 1
 :time                    0.03
 :total-time              0.06)
